SCIP version 5.0.0 [precision: 8 byte] [memory: block] [mode: optimized] [LP solver: NONE] [GitHash: 3bbd232]
Copyright (C) 2002-2017 Konrad-Zuse-Zentrum fuer Informationstechnik Berlin (ZIB)

External codes: 
  Readline EditLine w  GNU library for command line editing (gnu.org/s/readline)
  CppAD 20160000.1     Algorithmic Differentiation of C++ algorithms developed by B. Bell (www.coin-or.org/CppAD)
  ZLIB 1.2.5           General purpose compression library by J. Gailly and M. Adler (zlib.net)
  GMP 6.1.2            GNU Multiple Precision Arithmetic Library developed by T. Granlund (gmplib.org)

user parameter file <scip.set> not found - using default parameters

read problem <../../Split_data/output/parkin/8/0_sample_parkin.logreg>
============

File name	:	../../Split_data/output/parkin/8/0_sample_parkin.logreg
Problem name 	:	0_sample_parkin
Number of data	:	156
Number of var	:	22
The given data has linear independence

[dim=1] time: 0.0463
[dim=2] time: 0.388218
[dim=3] time: 0.5364
[dim=4] time: 0.650272
[dim=5] time: 0.777887
[dim=6] time: 1.41497
[dim=7] time: 1.68283
[dim=8] time: 2.20299
[dim=9] time: 2.7565
[dim=10] Time of forward = 2.99076sec.
AIC: 73.3152
k: 9

[dim=22] time: 8.11291
[dim=21] time: 13.4231
[dim=20] time: 18.1109
[dim=19] time: 20.9716
[dim=18] time: 27.0411
[dim=17] time: 31.346
[dim=16] time: 32.1472
[dim=15] time: 44.114
[dim=14] time: 47.1915
[dim=13] time: 48.1123
[dim=12] time: 50.3408
[dim=11] time: 50.9682
[dim=10] time: 53.3026
[dim=9] time: 55.1602
[dim=8] Time of backward = 56.8092sec.
AIC: 69.0435
k: 9
